NAME : pr439
TYPE : OP
DIMENSION : 439
COST_LIMIT : 53609
ROUTE_NODES : 292
ROUTE_SCORE : 16085
ROUTE_COST : 53600
NODE_SEQUENCE_SECTION
1
4
5
6
7
8
9
10
11
12
13
14
15
16
17
33
34
35
36
37
40
41
43
45
46
49
47
44
42
39
38
57
78
86
87
77
59
60
61
62
30
28
27
26
25
23
21
22
65
66
67
68
69
71
72
88
89
90
91
104
105
106
107
108
111
112
147
145
150
151
143
152
153
154
155
156
157
179
180
181
182
183
192
184
191
193
194
195
196
197
198
199
200
201
176
177
159
160
161
162
134
135
136
137
138
139
140
141
142
116
118
119
121
120
117
115
103
102
92
93
94
101
100
95
96
98
99
125
123
124
126
127
128
130
131
132
133
167
165
164
166
169
170
171
172
174
204
203
205
206
207
208
251
250
210
211
212
213
214
215
216
217
218
219
220
221
222
233
234
235
236
237
238
239
240
241
242
243
244
245
246
247
248
249
252
255
254
316
256
257
258
259
260
261
262
310
311
312
313
314
315
318
319
320
321
322
323
324
325
326
327
328
329
330
303
304
305
306
307
308
264
265
266
267
268
269
270
271
272
301
273
274
275
276
277
278
279
294
295
296
297
298
299
300
333
334
335
336
337
338
363
364
365
366
367
368
369
362
361
360
359
357
356
355
354
352
351
350
349
346
345
347
289
288
287
286
285
280
232
189
79
80
81
82
56
55
54
50
51
52
2
3
-1
DEPOT_SECTION
1
-1
EOF
